benchmarks_vrp/CMT4/min_c/CMT4_1.vrp
NAME: CMT4_1
TYPE: CVRP
COMMENT: 1028.42 - Cluster Nr.1
DIMENSION: 13
CAPACITY: 200
EDGE_WEIGHT_TYPE: EUC_2D
NODE_COORD_TYPE: TWOD_COORDS
NODE_COORD_SECTION: 
13 35 35
3 2 60
10 15 60
4 6 68
2 16 57
5 8 52
8 17 63
1 5 64
9 13 52
12 20 65
6 2 48
11 8 56
7 15 77
DEPOT_SECTION: 
13
-1
DEMAND_SECTION: 
7 9
6 1
9 36
5 10
4 30
3 5
12 12
2 16
1 11
10 17
11 27
13 0
8 19
EOF
