benchmarks_vrp/CMT4/min_c/CMT4_1.tour
NAME: CMT4_1 solution
TYPE: TOUR
TOUR_SECTION:
13 2 10 8 12 7 4 1 3 11 6 5 9 -1
-1
EOF